c clasp version 2.1.4
c Reading from ...arks/13_Nodes/PBencd_EuclideanCost.opb
c Solving...
o 380
o 354
o 351
o 339
o 338
o 332
o 318
o 316
o 308
o 292
o 291
o 288
o 284
o 273
o 262
o 261
o 258
o 253
o 249
o 245
o 242
o 239
o 238
o 228
o 227
c Answer: 25
v -x1 x2 -x3 -x4 -x5 -x6 -x7 -x8 -x9 -x10 -x11 -x12 -x13 -x14 -x15 -x16 -x17
v x18 -x19 -x20 -x21 -x22 -x23 -x24 -x25 -x26 x27 -x28 -x29 -x30 -x31 -x32
v -x33 -x34 -x35 -x36 -x37 -x38 -x39 -x40 -x41 -x42 -x43 x44 -x45 -x46 -x47
v -x48 -x49 -x50 -x51 -x52 -x53 -x54 -x55 -x56 x57 -x58 -x59 -x60 -x61 x62
v -x63 -x64 -x65 -x66 -x67 -x68 -x69 -x70 -x71 -x72 -x73 -x74 -x75 -x76 -x77
v -x78 -x79 -x80 -x81 x82 -x83 -x84 -x85 -x86 -x87 -x88 -x89 -x90 -x91 -x92
v -x93 -x94 x95 -x96 -x97 -x98 -x99 -x100 -x101 -x102 -x103 -x104 -x105 -x106
v -x107 x108 -x109 -x110 -x111 -x112 -x113 -x114 -x115 x116 -x117 -x118 -x119
v -x120 x121 -x122 -x123 -x124 -x125 -x126 -x127 -x128 -x129 -x130 -x131
v -x132 -x133 -x134 -x135 -x136 -x137 x138 -x139 -x140 -x141 -x142 -x143
v -x144 -x145 -x146 -x147 -x148 x149 -x150 -x151 -x152 -x153 -x154 -x155
v -x156 x157 x158 x159 -x160 x161 -x162 -x163 x164 -x165 x166 -x167 -x168
v -x169 x170 x171 x172 -x173 -x174 x175 x176 -x177 x178 x179 x180 -x181 x182
v x183 -x184 -x185 x186 x187 -x188 x189 -x190 x191 x192 -x193 -x194 -x195
v x196 -x197 x198 -x199 x200 x201 x202 x203 x204 x205 -x206 -x207 x208 x209
v -x210 x211 -x212 x213 -x214 -x215 x216 x217 x218 -x219 x220 x221 x222 -x223
v -x224 x225 -x226 -x227 -x228 -x229 -x230 -x231 -x232 x233 x234 x235 -x236
v x237 x238 -x239 -x240 -x241 -x242 -x243 -x244 x245 -x246 -x247 x248 -x249
v x250 -x251 -x252 x253 x254 -x255 -x256 x257 x258 x259 x260 -x261 -x262
v -x263 x264 -x265 -x266 x267 x268 -x269 x270 -x271 x272 x273 x274 -x275
v -x276 -x277 -x278 -x279 -x280 x281 x282 x283 x284 x285 -x286 -x287 -x288
v -x289 -x290 x291 x292 -x293 -x294 -x295 x296 -x297 x298 x299 -x300 -x301
v x302 x303 -x304 x305 -x306 -x307 -x308 -x309 -x310 -x311 x312 -x313 -x314
v x315 -x316 -x317 x318 -x319 -x320 x321 x322 x323 x324 -x325 -x326 -x327
v x328 x329 x330 -x331 -x332 x333 -x334 x335 -x336 x337 x338 -x339 -x340
v x341 x342 x343 -x344 x345 -x346 -x347 -x348 -x349 x350 -x351 -x352 -x353
v -x354 -x355 -x356 -x357 x358 -x359 -x360 -x361 x362 x363 x364 -x365 -x366
v x367 -x368 -x369 x370 -x371 x372 -x373 x374 -x375 -x376 -x377 x378 x379
v x380 -x381 x382 x383 -x384 -x385 -x386 -x387 x388 -x389 x390 -x391 -x392
v x393 x394 -x395 -x396 x397 x398 x399 x400 -x401 -x402 x403 -x404 x405 -x406
v x407 x408 x409 -x410 -x411 x412 x413 -x414 x415 -x416 x417 -x418 -x419
v -x420 -x421 -x422 x423 x424 -x425 -x426 -x427 -x428 -x429 x430 -x431 -x432
v -x433 x434 -x435 -x436 -x437 -x438 -x439 -x440 -x441 -x442 x443 -x444 -x445
v -x446 x447 -x448 -x449 x450 -x451 x452 -x453 x454 -x455 -x456 -x457 x458
v x459 x460 -x461 x462 -x463 x464 -x465 x466 -x467 x468 -x469 -x470 x471
v -x472 x473 x474 -x475 x476 x477 x478 x479 -x480 x481 x482 -x483 -x484 -x485
v x486 x487 x488 -x489 -x490 x491 x492 x493 x494 x495 -x496 -x497 -x498 -x499
v x500 x501 -x502 -x503 -x504 -x505 -x506 -x507 -x508 x509 -x510 x511 -x512
v -x513 -x514 -x515 x516 x517 -x518 -x519 x520 x521 -x522 -x523 -x524 -x525
v x526 -x527 -x528 -x529 -x530 -x531 x532 -x533 -x534 -x535 x536 -x537 x538
v -x539 -x540 x541 x542 x543 x544 -x545 -x546 -x547 x548 x549 x550 -x551
v -x552 x553 -x554 x555 -x556 x557 x558 -x559 -x560 x561 -x562 -x563 -x564
v x565 -x566 x567 x568 x569 x570 -x571 x572 x573 -x574 x575 -x576 -x577 -x578
v x579 -x580 x581 -x582 x583 x584 x585 -x586 x587 x588 -x589 x590 -x591 x592
v x593 x594 x595 -x596 -x597 -x598 -x599 -x600 x601 x602 -x603 x604 -x605
v -x606 -x607 x608 -x609 x610 -x611 -x612 -x613 -x614 x615 -x616 x617 -x618
v -x619 -x620 x621 -x622 x623 x624 -x625 -x626 -x627 -x628 -x629 -x630 -x631
v x632 -x633 -x634 x635 -x636 -x637 x638 -x639 -x640 x641 -x642 x643 -x644
v -x645 x646 x647 x648 x649 x650 -x651 x652 x653 -x654 -x655 x656 -x657 -x658
v x659 -x660 x661 x662 -x663 -x664 x665 -x666 -x667 x668 x669 x670 -x671
v -x672 -x673 -x674 -x675 x676 x677 -x678 x679 -x680 x681 -x682 x683 -x684
v x685 -x686 x687 -x688 -x689 -x690 x691 -x692 -x693 -x694 -x695 -x696 -x697
v x698 x699 -x700 x701 x702 -x703 -x704 x705 -x706 -x707 x708 x709 -x710
v -x711 -x712 x713 -x714 x715 -x716 x717 x718 -x719 x720 -x721 -x722 -x723
v -x724 -x725 -x726 x727 -x728 x729 -x730 -x731 x732 x733 x734 -x735 -x736
v x737 x738 -x739 -x740 -x741 x742 -x743 -x744 -x745 -x746 -x747 -x748 -x749
v x750 -x751 -x752 -x753 x754 -x755 -x756 -x757 -x758 -x759 -x760 -x761 -x762
v -x763 x764 -x765 x766 x767 -x768 -x769 -x770 x771 x772 -x773 x774 -x775
v x776 -x777 x778 x779 -x780 x781 x782 x783 -x784 x785 -x786 -x787 -x788
v -x789 -x790 x791 -x792 x793 -x794 -x795 x796 x797 -x798 -x799 -x800 -x801
v x802 x803 x804 -x805 x806 x807 x808 -x809 -x810 x811 x812 x813 x814 x815
v -x816 -x817 -x818 -x819 x820 x821 -x822 -x823 -x824 -x825 -x826 -x827 x828
v -x829 x830 -x831 -x832 x833 x834 x835 -x836 x837 x838 x839 x840 -x841 -x842
v -x843 x844 -x845 -x846 x847 -x848 -x849 x850 -x851 x852 x853 -x854 x855
v -x856 x857 x858 x859 -x860 -x861 -x862 -x863 -x864 -x865 x866 x867 -x868
v x869 -x870 -x871 -x872 -x873 -x874 x875 -x876 x877 -x878 -x879 -x880 x881
v x882 -x883 -x884 -x885 x886 -x887 x888 x889 x890 -x891 -x892 x893 -x894
v -x895 x896 x897 x898 -x899 -x900 x901 -x902 -x903 -x904 x905 -x906 -x907
v -x908 -x909 -x910 -x911 x912 x913 x914 x915 -x916 x917 x918 -x919 x920
v -x921 -x922 -x923 x924 -x925 x926 x927 -x928 -x929 x930 -x931 -x932 -x933
v -x934 -x935 x936 x937 -x938 x939 -x940 x941
s OPTIMUM FOUND

c Models        : 1     
c   Enumerated  : 25
c   Optimum     : yes
c Optimization  : 227
c Time          : 141.307s (Solving: 141.31s 1st Model: 0.47s Unsat: 128.43s)
c CPU Time      : 71.530s
c Choices       : 2694639
c Conflicts     : 1658876
c Restarts      : 1084   (Average: 1530.33 Last: 6940)

c Variables     : 941    (Eliminated:    0 Frozen:  941)
c Constraints   : 340    (Binary:  0.0% Ternary:  0.0% Other:100.0%)
c Lemmas        : 1658875 (Binary:  0.0% Ternary:  0.2% Other: 99.8%)
c   Conflict    : 1658875 (Average Length: 11.7) 
c   Loop        : 0      (Average Length: 0.0) 
c   Other       : 0      (Average Length: 0.0)
c   Deleted     : 1347589

c Backtracks            : 1     
c Backjumps             : 1658875 (Bounded: 0)
c Skippable Levels      : 2660942 (Skipped: 2660942 Rate: 100.0%)
c Max Jump Length       : 121    (Executed: 121)
c Max Bound Length      : 0     
c Average Jump Length   : 1.6    (Executed: 1.6)
c Average Bound Length  : 0.0   
c Average Model Length  : 32.0  
